(set-logic QF_BV)
(define-fun implies ((p Bool) (q Bool)) Bool (or (not p) q))

(declare-const STANDARD_MODEL_NAME Bool)
(declare-const High Bool)
(declare-const Standard_1 Bool)
(declare-const Private Bool)
(declare-const Retailer Bool)
(declare-const Categories Bool)
(declare-const CommunityForum Bool)
(declare-const Chat Bool)
(declare-const Email Bool)
(declare-const FAQ Bool)
(declare-const Phone_2 Bool)
(declare-const Cheque Bool)
(declare-const CreditCard Bool)
(declare-const Escrow Bool)
(declare-const PayPal Bool)
(declare-const PostalOrder Bool)
(declare-const PC Bool)
(declare-const Phone Bool)
(declare-const Android_1 Bool)
(declare-const Apple_1 Bool)
(declare-const Windows_1 Bool)
(declare-const Tablets Bool)
(declare-const Android Bool)
(declare-const Apple Bool)
(declare-const Windows Bool)
(declare-const Premium Bool)
(declare-const Standard Bool)
(assert
(and STANDARD_MODEL_NAME(and(implies(or High Standard_1)
 STANDARD_MODEL_NAME)
(implies STANDARD_MODEL_NAME(or(and High(not Standard_1))
(and(not High)
 Standard_1)))
(and(implies(or Private Retailer)
 STANDARD_MODEL_NAME)
(implies STANDARD_MODEL_NAME(or(and Private(not Retailer))
(and(not Private)
 Retailer))))
(and(implies Categories STANDARD_MODEL_NAME)
(implies CommunityForum STANDARD_MODEL_NAME))
(=(or Chat Email FAQ Phone_2)
 STANDARD_MODEL_NAME)
(=(or Cheque CreditCard Escrow PayPal PostalOrder)
 STANDARD_MODEL_NAME)
(=(or Android_1 Apple_1 Windows_1)
 Phone)
(=(or Android Apple Windows)
 Tablets)
(=(or PC Phone Tablets)
 STANDARD_MODEL_NAME)
(=(or Premium Standard)
 STANDARD_MODEL_NAME))
(and(implies CreditCard High)
(implies Private Categories)
(implies Retailer Categories)))
)